n = 50;
C = 243;
w = [77,203,20,109,463,317,438,198,280,359,49,277,81,367,459,231,291,8,461,369,19,135,420,461,118,114,313,68,458,76,467,307,103,271,15,365,386,173,339,158,441,101,244,380,233,403,362,5,87,78];
p = [112,174,-3,116,464,321,446,220,328,405,29,305,36,351,435,181,290,-22,425,361,-28,115,449,501,124,107,327,104,436,49,458,296,105,278,27,349,423,125,317,142,447,123,263,338,226,437,372,21,64,93];
